NAME /Users/henri/Research/solvers/instances/idol-instances/robust/collection/cbp_Subramanyam_et_al_2020/CapBud_N25_9/models/uncertain_technology_matrix/
ROWS
 N  OBJ
 L  capacity
 L  c_4175
 L  c_4176
 L  c_4177
 L  c_4178
 L  c_4179
 L  c_4180
 L  c_4181
 L  c_4182
 L  c_4183
 L  c_4184
 L  c_4185
 L  c_4186
 L  c_4187
 L  c_4188
 L  c_4189
 L  c_4190
 L  c_4191
 L  c_4192
 L  c_4193
 L  c_4194
 L  c_4195
 L  c_4196
 L  c_4197
 L  c_4198
 L  c_4199
COLUMNS
    MARKER    'MARKER'                 'INTORG'
    x_0        OBJ        1.83379
    x_0        c_4175     1
    x_0        capacity   0.366757
    x_1        OBJ        9.72235
    x_1        c_4176     1
    x_1        capacity   1.94447
    x_2        OBJ        1.89413
    x_2        c_4177     1
    x_2        capacity   0.378826
    x_3        OBJ        9.39557
    x_3        c_4178     1
    x_3        capacity   1.87911
    x_4        OBJ        5.33841
    x_4        c_4179     1
    x_4        capacity   1.06768
    x_5        OBJ        7.46209
    x_5        c_4180     1
    x_5        capacity   1.49242
    x_6        OBJ        5.47236
    x_6        c_4181     1
    x_6        capacity   1.09447
    x_7        OBJ        8.64677
    x_7        c_4182     1
    x_7        capacity   1.72935
    x_8        OBJ        1.15484
    x_8        c_4183     1
    x_8        capacity   0.230968
    x_9        OBJ        6.69242
    x_9        c_4184     1
    x_9        capacity   1.33848
    x_10       OBJ        9.85905
    x_10       c_4185     1
    x_10       capacity   1.97181
    x_11       OBJ        4.67865
    x_11       c_4186     1
    x_11       capacity   0.935731
    x_12       OBJ        4.65224
    x_12       c_4187     1
    x_12       capacity   0.930447
    x_13       OBJ        0.320721
    x_13       c_4188     1
    x_13       capacity   0.0641442
    x_14       OBJ        6.69903
    x_14       c_4189     1
    x_14       capacity   1.33981
    x_15       OBJ        9.65988
    x_15       c_4190     1
    x_15       capacity   1.93198
    x_16       OBJ        1.6882
    x_16       c_4191     1
    x_16       capacity   0.337641
    x_17       OBJ        0.0294709
    x_17       c_4192     1
    x_17       capacity   0.00589417
    x_18       OBJ        2.84652
    x_18       c_4193     1
    x_18       capacity   0.569303
    x_19       OBJ        4.59565
    x_19       c_4194     1
    x_19       capacity   0.919129
    x_20       OBJ        1.92559
    x_20       c_4195     1
    x_20       capacity   0.385118
    x_21       OBJ        7.74123
    x_21       c_4196     1
    x_21       capacity   1.54825
    x_22       OBJ        2.4769
    x_22       c_4197     1
    x_22       capacity   0.49538
    x_23       OBJ        1.52924
    x_23       c_4198     1
    x_23       capacity   0.305849
    x_24       OBJ        8.73155
    x_24       c_4199     1
    x_24       capacity   1.74631
    y_0        OBJ        1.46703
    y_0        c_4175     1
    y_0        capacity   0.366757
    y_1        OBJ        7.77788
    y_1        c_4176     1
    y_1        capacity   1.94447
    y_2        OBJ        1.5153
    y_2        c_4177     1
    y_2        capacity   0.378826
    y_3        OBJ        7.51646
    y_3        c_4178     1
    y_3        capacity   1.87911
    y_4        OBJ        4.27073
    y_4        c_4179     1
    y_4        capacity   1.06768
    y_5        OBJ        5.96968
    y_5        c_4180     1
    y_5        capacity   1.49242
    y_6        OBJ        4.37789
    y_6        c_4181     1
    y_6        capacity   1.09447
    y_7        OBJ        6.91741
    y_7        c_4182     1
    y_7        capacity   1.72935
    y_8        OBJ        0.923872
    y_8        c_4183     1
    y_8        capacity   0.230968
    y_9        OBJ        5.35394
    y_9        c_4184     1
    y_9        capacity   1.33848
    y_10       OBJ        7.88724
    y_10       c_4185     1
    y_10       capacity   1.97181
    y_11       OBJ        3.74292
    y_11       c_4186     1
    y_11       capacity   0.935731
    y_12       OBJ        3.72179
    y_12       c_4187     1
    y_12       capacity   0.930447
    y_13       OBJ        0.256577
    y_13       c_4188     1
    y_13       capacity   0.0641442
    y_14       OBJ        5.35922
    y_14       c_4189     1
    y_14       capacity   1.33981
    y_15       OBJ        7.72791
    y_15       c_4190     1
    y_15       capacity   1.93198
    y_16       OBJ        1.35056
    y_16       c_4191     1
    y_16       capacity   0.337641
    y_17       OBJ        0.0235767
    y_17       c_4192     1
    y_17       capacity   0.00589417
    y_18       OBJ        2.27721
    y_18       c_4193     1
    y_18       capacity   0.569303
    y_19       OBJ        3.67652
    y_19       c_4194     1
    y_19       capacity   0.919129
    y_20       OBJ        1.54047
    y_20       c_4195     1
    y_20       capacity   0.385118
    y_21       OBJ        6.19298
    y_21       c_4196     1
    y_21       capacity   1.54825
    y_22       OBJ        1.98152
    y_22       c_4197     1
    y_22       capacity   0.49538
    y_23       OBJ        1.22339
    y_23       c_4198     1
    y_23       capacity   0.305849
    y_24       OBJ        6.98524
    y_24       c_4199     1
    y_24       capacity   1.74631
    MARKER    'MARKER'                 'INTEND'
RHS
    RHS       capacity   62.5233
    RHS       c_4175     1
    RHS       c_4176     1
    RHS       c_4177     1
    RHS       c_4178     1
    RHS       c_4179     1
    RHS       c_4180     1
    RHS       c_4181     1
    RHS       c_4182     1
    RHS       c_4183     1
    RHS       c_4184     1
    RHS       c_4185     1
    RHS       c_4186     1
    RHS       c_4187     1
    RHS       c_4188     1
    RHS       c_4189     1
    RHS       c_4190     1
    RHS       c_4191     1
    RHS       c_4192     1
    RHS       c_4193     1
    RHS       c_4194     1
    RHS       c_4195     1
    RHS       c_4196     1
    RHS       c_4197     1
    RHS       c_4198     1
    RHS       c_4199     1
BOUNDS
 LI BND       x_0        0
 UI BND       x_0        1
 LI BND       x_1        0
 UI BND       x_1        1
 LI BND       x_2        0
 UI BND       x_2        1
 LI BND       x_3        0
 UI BND       x_3        1
 LI BND       x_4        0
 UI BND       x_4        1
 LI BND       x_5        0
 UI BND       x_5        1
 LI BND       x_6        0
 UI BND       x_6        1
 LI BND       x_7        0
 UI BND       x_7        1
 LI BND       x_8        0
 UI BND       x_8        1
 LI BND       x_9        0
 UI BND       x_9        1
 LI BND       x_10       0
 UI BND       x_10       1
 LI BND       x_11       0
 UI BND       x_11       1
 LI BND       x_12       0
 UI BND       x_12       1
 LI BND       x_13       0
 UI BND       x_13       1
 LI BND       x_14       0
 UI BND       x_14       1
 LI BND       x_15       0
 UI BND       x_15       1
 LI BND       x_16       0
 UI BND       x_16       1
 LI BND       x_17       0
 UI BND       x_17       1
 LI BND       x_18       0
 UI BND       x_18       1
 LI BND       x_19       0
 UI BND       x_19       1
 LI BND       x_20       0
 UI BND       x_20       1
 LI BND       x_21       0
 UI BND       x_21       1
 LI BND       x_22       0
 UI BND       x_22       1
 LI BND       x_23       0
 UI BND       x_23       1
 LI BND       x_24       0
 UI BND       x_24       1
 LI BND       y_0        0
 UI BND       y_0        1
 LI BND       y_1        0
 UI BND       y_1        1
 LI BND       y_2        0
 UI BND       y_2        1
 LI BND       y_3        0
 UI BND       y_3        1
 LI BND       y_4        0
 UI BND       y_4        1
 LI BND       y_5        0
 UI BND       y_5        1
 LI BND       y_6        0
 UI BND       y_6        1
 LI BND       y_7        0
 UI BND       y_7        1
 LI BND       y_8        0
 UI BND       y_8        1
 LI BND       y_9        0
 UI BND       y_9        1
 LI BND       y_10       0
 UI BND       y_10       1
 LI BND       y_11       0
 UI BND       y_11       1
 LI BND       y_12       0
 UI BND       y_12       1
 LI BND       y_13       0
 UI BND       y_13       1
 LI BND       y_14       0
 UI BND       y_14       1
 LI BND       y_15       0
 UI BND       y_15       1
 LI BND       y_16       0
 UI BND       y_16       1
 LI BND       y_17       0
 UI BND       y_17       1
 LI BND       y_18       0
 UI BND       y_18       1
 LI BND       y_19       0
 UI BND       y_19       1
 LI BND       y_20       0
 UI BND       y_20       1
 LI BND       y_21       0
 UI BND       y_21       1
 LI BND       y_22       0
 UI BND       y_22       1
 LI BND       y_23       0
 UI BND       y_23       1
 LI BND       y_24       0
 UI BND       y_24       1
ENDATA
